p cnf 876 2750
-3 -4 51 0
3 -4 -51 0
-3 4 -51 0
3 4 51 0
5 -7 52 0
-5 -7 -52 0
5 7 -52 0
-5 7 52 0
-9 -11 53 0
9 -11 -53 0
-9 11 -53 0
9 11 53 0
16 -17 54 0
-16 -17 -54 0
16 17 -54 0
-16 17 54 0
19 -21 55 0
-19 -21 -55 0
19 21 -55 0
-19 21 55 0
-22 -25 56 0
22 -25 -56 0
-22 25 -56 0
22 25 56 0
-27 32 57 0
27 32 -57 0
-27 -32 -57 0
27 -32 57 0
-33 34 58 0
33 34 -58 0
-33 -34 -58 0
33 -34 58 0
-35 36 59 0
35 36 -59 0
-35 -36 -59 0
35 -36 59 0
-37 -38 60 0
37 -38 -60 0
-37 38 -60 0
37 38 60 0
-44 -45 61 0
44 -45 -61 0
-44 45 -61 0
44 45 61 0
-46 -47 62 0
46 -47 -62 0
-46 47 -62 0
46 47 62 0
51 -52 63 0
-51 -52 -63 0
51 52 -63 0
-51 52 63 0
53 -54 64 0
-53 -54 -64 0
53 54 -64 0
-53 54 64 0
55 -56 65 0
-55 -56 -65 0
55 56 -65 0
-55 56 65 0
57 -58 66 0
-57 -58 -66 0
57 58 -66 0
-57 58 66 0
59 -60 67 0
-59 -60 -67 0
59 60 -67 0
-59 60 67 0
61 -62 68 0
-61 -62 -68 0
61 62 -68 0
-61 62 68 0
63 -64 69 0
-63 -64 -69 0
63 64 -69 0
-63 64 69 0
65 -66 70 0
-65 -66 -70 0
65 66 -70 0
-65 66 70 0
67 -68 71 0
-67 -68 -71 0
67 68 -71 0
-67 68 71 0
-69 -70 71 0
69 -70 -71 0
-69 70 -71 0
69 70 71 0
-1 2 72 0
1 2 -72 0
-1 -2 -72 0
1 -2 72 0
4 7 73 0
-4 7 -73 0
4 -7 -73 0
-4 -7 73 0
-9 10 74 0
9 10 -74 0
-9 -10 -74 0
9 -10 74 0
11 12 75 0
-11 12 -75 0
11 -12 -75 0
-11 -12 75 0
-13 14 76 0
13 14 -76 0
-13 -14 -76 0
13 -14 76 0
-19 -22 77 0
19 -22 -77 0
-19 22 -77 0
19 22 77 0
24 -25 78 0
-24 -25 -78 0
24 25 -78 0
-24 25 78 0
26 -27 79 0
-26 -27 -79 0
26 27 -79 0
-26 27 79 0
-28 -29 80 0
28 -29 -80 0
-28 29 -80 0
28 29 80 0
-32 -33 81 0
32 -33 -81 0
-32 33 -81 0
32 33 81 0
-34 -38 82 0
34 -38 -82 0
-34 38 -82 0
34 38 82 0
39 -41 83 0
-39 -41 -83 0
39 41 -83 0
-39 41 83 0
42 44 84 0
-42 44 -84 0
42 -44 -84 0
-42 -44 84 0
-45 47 85 0
45 47 -85 0
-45 -47 -85 0
45 -47 85 0
-49 -50 86 0
49 -50 -86 0
-49 50 -86 0
49 50 86 0
72 -73 87 0
-72 -73 -87 0
72 73 -87 0
-72 73 87 0
74 -75 88 0
-74 -75 -88 0
74 75 -88 0
-74 75 88 0
76 -77 89 0
-76 -77 -89 0
76 77 -89 0
-76 77 89 0
78 -79 90 0
-78 -79 -90 0
78 79 -90 0
-78 79 90 0
80 -81 91 0
-80 -81 -91 0
80 81 -91 0
-80 81 91 0
82 -83 92 0
-82 -83 -92 0
82 83 -92 0
-82 83 92 0
84 -85 93 0
-84 -85 -93 0
84 85 -93 0
-84 85 93 0
86 -87 94 0
-86 -87 -94 0
86 87 -94 0
-86 87 94 0
88 -89 95 0
-88 -89 -95 0
88 89 -95 0
-88 89 95 0
90 -91 96 0
-90 -91 -96 0
90 91 -96 0
-90 91 96 0
92 -93 97 0
-92 -93 -97 0
92 93 -97 0
-92 93 97 0
94 -95 98 0
-94 -95 -98 0
94 95 -98 0
-94 95 98 0
96 -97 99 0
-96 -97 -99 0
96 97 -99 0
-96 97 99 0
98 99 0
-98 -99 0
-1 -3 100 0
1 -3 -100 0
-1 3 -100 0
1 3 100 0
-10 -11 101 0
10 -11 -101 0
-10 11 -101 0
10 11 101 0
-14 16 102 0
14 16 -102 0
-14 -16 -102 0
14 -16 102 0
-19 -20 103 0
19 -20 -103 0
-19 20 -103 0
19 20 103 0
-21 -22 104 0
21 -22 -104 0
-21 22 -104 0
21 22 104 0
23 25 105 0
-23 25 -105 0
23 -25 -105 0
-23 -25 105 0
-26 -28 106 0
26 -28 -106 0
-26 28 -106 0
26 28 106 0
29 -30 107 0
-29 -30 -107 0
29 30 -107 0
-29 30 107 0
-34 35 108 0
34 35 -108 0
-34 -35 -108 0
34 -35 108 0
-37 40 109 0
37 40 -109 0
-37 -40 -109 0
37 -40 109 0
-42 44 110 0
42 44 -110 0
-42 -44 -110 0
42 -44 110 0
-46 -48 111 0
46 -48 -111 0
-46 48 -111 0
46 48 111 0
99 -100 112 0
-99 -100 -112 0
99 100 -112 0
-99 100 112 0
101 -102 113 0
-101 -102 -113 0
101 102 -113 0
-101 102 113 0
103 -104 114 0
-103 -104 -114 0
103 104 -114 0
-103 104 114 0
105 -106 115 0
-105 -106 -115 0
105 106 -115 0
-105 106 115 0
107 -108 116 0
-107 -108 -116 0
107 108 -116 0
-107 108 116 0
109 -110 117 0
-109 -110 -117 0
109 110 -117 0
-109 110 117 0
111 -112 118 0
-111 -112 -118 0
111 112 -118 0
-111 112 118 0
113 -114 119 0
-113 -114 -119 0
113 114 -119 0
-113 114 119 0
115 -116 120 0
-115 -116 -120 0
115 116 -120 0
-115 116 120 0
117 -118 121 0
-117 -118 -121 0
117 118 -121 0
-117 118 121 0
119 -120 122 0
-119 -120 -122 0
119 120 -122 0
-119 120 122 0
121 122 0
-121 -122 0
-1 3 123 0
1 3 -123 0
-1 -3 -123 0
1 -3 123 0
-5 -7 124 0
5 -7 -124 0
-5 7 -124 0
5 7 124 0
-9 -10 125 0
9 -10 -125 0
-9 10 -125 0
9 10 125 0
-14 15 126 0
14 15 -126 0
-14 -15 -126 0
14 -15 126 0
21 -23 127 0
-21 -23 -127 0
21 23 -127 0
-21 23 127 0
26 -27 128 0
-26 -27 -128 0
26 27 -128 0
-26 27 128 0
28 30 129 0
-28 30 -129 0
28 -30 -129 0
-28 -30 129 0
-32 34 130 0
32 34 -130 0
-32 -34 -130 0
32 -34 130 0
-35 36 131 0
35 36 -131 0
-35 -36 -131 0
35 -36 131 0
-40 -41 132 0
40 -41 -132 0
-40 41 -132 0
40 41 132 0
42 -45 133 0
-42 -45 -133 0
42 45 -133 0
-42 45 133 0
123 -124 134 0
-123 -124 -134 0
123 124 -134 0
-123 124 134 0
125 -126 135 0
-125 -126 -135 0
125 126 -135 0
-125 126 135 0
127 -128 136 0
-127 -128 -136 0
127 128 -136 0
-127 128 136 0
129 -130 137 0
-129 -130 -137 0
129 130 -137 0
-129 130 137 0
131 -132 138 0
-131 -132 -138 0
131 132 -138 0
-131 132 138 0
133 -134 139 0
-133 -134 -139 0
133 134 -139 0
-133 134 139 0
135 -136 140 0
-135 -136 -140 0
135 136 -140 0
-135 136 140 0
137 -138 141 0
-137 -138 -141 0
137 138 -141 0
-137 138 141 0
-139 -140 141 0
139 -140 -141 0
-139 140 -141 0
139 140 141 0
3 -7 142 0
-3 -7 -142 0
3 7 -142 0
-3 7 142 0
9 10 143 0
-9 10 -143 0
9 -10 -143 0
-9 -10 143 0
-11 12 144 0
11 12 -144 0
-11 -12 -144 0
11 -12 144 0
14 -16 145 0
-14 -16 -145 0
14 16 -145 0
-14 16 145 0
-19 -23 146 0
19 -23 -146 0
-19 23 -146 0
19 23 146 0
-24 30 147 0
24 30 -147 0
-24 -30 -147 0
24 -30 147 0
31 -32 148 0
-31 -32 -148 0
31 32 -148 0
-31 32 148 0
34 -35 149 0
-34 -35 -149 0
34 35 -149 0
-34 35 149 0
36 37 150 0
-36 37 -150 0
36 -37 -150 0
-36 -37 150 0
-38 -41 151 0
38 -41 -151 0
-38 41 -151 0
38 41 151 0
-43 45 152 0
43 45 -152 0
-43 -45 -152 0
43 -45 152 0
141 -142 153 0
-141 -142 -153 0
141 142 -153 0
-141 142 153 0
143 -144 154 0
-143 -144 -154 0
143 144 -154 0
-143 144 154 0
145 -146 155 0
-145 -146 -155 0
145 146 -155 0
-145 146 155 0
147 -148 156 0
-147 -148 -156 0
147 148 -156 0
-147 148 156 0
149 -150 157 0
-149 -150 -157 0
149 150 -157 0
-149 150 157 0
151 -152 158 0
-151 -152 -158 0
151 152 -158 0
-151 152 158 0
153 -154 159 0
-153 -154 -159 0
153 154 -159 0
-153 154 159 0
155 -156 160 0
-155 -156 -160 0
155 156 -160 0
-155 156 160 0
157 -158 161 0
-157 -158 -161 0
157 158 -161 0
-157 158 161 0
-159 -160 161 0
159 -160 -161 0
-159 160 -161 0
159 160 161 0
-1 2 162 0
1 2 -162 0
-1 -2 -162 0
1 -2 162 0
6 7 163 0
-6 7 -163 0
6 -7 -163 0
-6 -7 163 0
-8 9 164 0
8 9 -164 0
-8 -9 -164 0
8 -9 164 0
-10 -12 165 0
10 -12 -165 0
-10 12 -165 0
10 12 165 0
-13 -15 166 0
13 -15 -166 0
-13 15 -166 0
13 15 166 0
-17 -18 167 0
17 -18 -167 0
-17 18 -167 0
17 18 167 0
20 21 168 0
-20 21 -168 0
20 -21 -168 0
-20 -21 168 0
-24 26 169 0
24 26 -169 0
-24 -26 -169 0
24 -26 169 0
28 29 170 0
-28 29 -170 0
28 -29 -170 0
-28 -29 170 0
30 -31 171 0
-30 -31 -171 0
30 31 -171 0
-30 31 171 0
-32 -36 172 0
32 -36 -172 0
-32 36 -172 0
32 36 172 0
38 39 173 0
-38 39 -173 0
38 -39 -173 0
-38 -39 173 0
40 41 174 0
-40 41 -174 0
40 -41 -174 0
-40 -41 174 0
42 -43 175 0
-42 -43 -175 0
42 43 -175 0
-42 43 175 0
45 46 176 0
-45 46 -176 0
45 -46 -176 0
-45 -46 176 0
-47 48 177 0
47 48 -177 0
-47 -48 -177 0
47 -48 177 0
161 -162 178 0
-161 -162 -178 0
161 162 -178 0
-161 162 178 0
163 -164 179 0
-163 -164 -179 0
163 164 -179 0
-163 164 179 0
165 -166 180 0
-165 -166 -180 0
165 166 -180 0
-165 166 180 0
167 -168 181 0
-167 -168 -181 0
167 168 -181 0
-167 168 181 0
169 -170 182 0
-169 -170 -182 0
169 170 -182 0
-169 170 182 0
171 -172 183 0
-171 -172 -183 0
171 172 -183 0
-171 172 183 0
173 -174 184 0
-173 -174 -184 0
173 174 -184 0
-173 174 184 0
175 -176 185 0
-175 -176 -185 0
175 176 -185 0
-175 176 185 0
177 -178 186 0
-177 -178 -186 0
177 178 -186 0
-177 178 186 0
179 -180 187 0
-179 -180 -187 0
179 180 -187 0
-179 180 187 0
181 -182 188 0
-181 -182 -188 0
181 182 -188 0
-181 182 188 0
183 -184 189 0
-183 -184 -189 0
183 184 -189 0
-183 184 189 0
185 -186 190 0
-185 -186 -190 0
185 186 -190 0
-185 186 190 0
187 -188 191 0
-187 -188 -191 0
187 188 -191 0
-187 188 191 0
-189 -190 191 0
189 -190 -191 0
-189 190 -191 0
189 190 191 0
3 5 192 0
-3 5 -192 0
3 -5 -192 0
-3 -5 192 0
7 -10 193 0
-7 -10 -193 0
7 10 -193 0
-7 10 193 0
12 13 194 0
-12 13 -194 0
12 -13 -194 0
-12 -13 194 0
16 26 195 0
-16 26 -195 0
16 -26 -195 0
-16 -26 195 0
-27 28 196 0
27 28 -196 0
-27 -28 -196 0
27 -28 196 0
29 33 197 0
-29 33 -197 0
29 -33 -197 0
-29 -33 197 0
34 35 198 0
-34 35 -198 0
34 -35 -198 0
-34 -35 198 0
-37 38 199 0
37 38 -199 0
-37 -38 -199 0
37 -38 199 0
40 41 200 0
-40 41 -200 0
40 -41 -200 0
-40 -41 200 0
-42 44 201 0
42 44 -201 0
-42 -44 -201 0
42 -44 201 0
45 -46 202 0
-45 -46 -202 0
45 46 -202 0
-45 46 202 0
47 -48 203 0
-47 -48 -203 0
47 48 -203 0
-47 48 203 0
49 -50 204 0
-49 -50 -204 0
49 50 -204 0
-49 50 204 0
192 -193 205 0
-192 -193 -205 0
192 193 -205 0
-192 193 205 0
194 -195 206 0
-194 -195 -206 0
194 195 -206 0
-194 195 206 0
196 -197 207 0
-196 -197 -207 0
196 197 -207 0
-196 197 207 0
198 -199 208 0
-198 -199 -208 0
198 199 -208 0
-198 199 208 0
200 -201 209 0
-200 -201 -209 0
200 201 -209 0
-200 201 209 0
202 -203 210 0
-202 -203 -210 0
202 203 -210 0
-202 203 210 0
204 -205 211 0
-204 -205 -211 0
204 205 -211 0
-204 205 211 0
206 -207 212 0
-206 -207 -212 0
206 207 -212 0
-206 207 212 0
208 -209 213 0
-208 -209 -213 0
208 209 -213 0
-208 209 213 0
210 -211 214 0
-210 -211 -214 0
210 211 -214 0
-210 211 214 0
212 -213 215 0
-212 -213 -215 0
212 213 -215 0
-212 213 215 0
214 215 0
-214 -215 0
1 -2 216 0
-1 -2 -216 0
1 2 -216 0
-1 2 216 0
-4 -6 217 0
4 -6 -217 0
-4 6 -217 0
4 6 217 0
7 11 218 0
-7 11 -218 0
7 -11 -218 0
-7 -11 218 0
12 14 219 0
-12 14 -219 0
12 -14 -219 0
-12 -14 219 0
15 16 220 0
-15 16 -220 0
15 -16 -220 0
-15 -16 220 0
19 20 221 0
-19 20 -221 0
19 -20 -221 0
-19 -20 221 0
-23 -24 222 0
23 -24 -222 0
-23 24 -222 0
23 24 222 0
25 26 223 0
-25 26 -223 0
25 -26 -223 0
-25 -26 223 0
-30 -36 224 0
30 -36 -224 0
-30 36 -224 0
30 36 224 0
37 38 225 0
-37 38 -225 0
37 -38 -225 0
-37 -38 225 0
-39 -41 226 0
39 -41 -226 0
-39 41 -226 0
39 41 226 0
43 -45 227 0
-43 -45 -227 0
43 45 -227 0
-43 45 227 0
47 48 228 0
-47 48 -228 0
47 -48 -228 0
-47 -48 228 0
215 -216 229 0
-215 -216 -229 0
215 216 -229 0
-215 216 229 0
217 -218 230 0
-217 -218 -230 0
217 218 -230 0
-217 218 230 0
219 -220 231 0
-219 -220 -231 0
219 220 -231 0
-219 220 231 0
221 -222 232 0
-221 -222 -232 0
221 222 -232 0
-221 222 232 0
223 -224 233 0
-223 -224 -233 0
223 224 -233 0
-223 224 233 0
225 -226 234 0
-225 -226 -234 0
225 226 -234 0
-225 226 234 0
227 -228 235 0
-227 -228 -235 0
227 228 -235 0
-227 228 235 0
229 -230 236 0
-229 -230 -236 0
229 230 -236 0
-229 230 236 0
231 -232 237 0
-231 -232 -237 0
231 232 -237 0
-231 232 237 0
233 -234 238 0
-233 -234 -238 0
233 234 -238 0
-233 234 238 0
235 -236 239 0
-235 -236 -239 0
235 236 -239 0
-235 236 239 0
237 -238 240 0
-237 -238 -240 0
237 238 -240 0
-237 238 240 0
239 240 0
-239 -240 0
1 2 241 0
-1 2 -241 0
1 -2 -241 0
-1 -2 241 0
-5 -6 242 0
5 -6 -242 0
-5 6 -242 0
5 6 242 0
8 -10 243 0
-8 -10 -243 0
8 10 -243 0
-8 10 243 0
11 12 244 0
-11 12 -244 0
11 -12 -244 0
-11 -12 244 0
13 -19 245 0
-13 -19 -245 0
13 19 -245 0
-13 19 245 0
-20 -26 246 0
20 -26 -246 0
-20 26 -246 0
20 26 246 0
27 -28 247 0
-27 -28 -247 0
27 28 -247 0
-27 28 247 0
-29 32 248 0
29 32 -248 0
-29 -32 -248 0
29 -32 248 0
36 37 249 0
-36 37 -249 0
36 -37 -249 0
-36 -37 249 0
39 -40 250 0
-39 -40 -250 0
39 40 -250 0
-39 40 250 0
-43 44 251 0
43 44 -251 0
-43 -44 -251 0
43 -44 251 0
-47 49 252 0
47 49 -252 0
-47 -49 -252 0
47 -49 252 0
241 -242 253 0
-241 -242 -253 0
241 242 -253 0
-241 242 253 0
243 -244 254 0
-243 -244 -254 0
243 244 -254 0
-243 244 254 0
245 -246 255 0
-245 -246 -255 0
245 246 -255 0
-245 246 255 0
247 -248 256 0
-247 -248 -256 0
247 248 -256 0
-247 248 256 0
249 -250 257 0
-249 -250 -257 0
249 250 -257 0
-249 250 257 0
251 -252 258 0
-251 -252 -258 0
251 252 -258 0
-251 252 258 0
253 -254 259 0
-253 -254 -259 0
253 254 -259 0
-253 254 259 0
255 -256 260 0
-255 -256 -260 0
255 256 -260 0
-255 256 260 0
257 -258 261 0
-257 -258 -261 0
257 258 -261 0
-257 258 261 0
-259 -260 261 0
259 -260 -261 0
-259 260 -261 0
259 260 261 0
-1 2 262 0
1 2 -262 0
-1 -2 -262 0
1 -2 262 0
-3 4 263 0
3 4 -263 0
-3 -4 -263 0
3 -4 263 0
-5 -6 264 0
5 -6 -264 0
-5 6 -264 0
5 6 264 0
11 12 265 0
-11 12 -265 0
11 -12 -265 0
-11 -12 265 0
-15 -16 266 0
15 -16 -266 0
-15 16 -266 0
15 16 266 0
18 19 267 0
-18 19 -267 0
18 -19 -267 0
-18 -19 267 0
-21 24 268 0
21 24 -268 0
-21 -24 -268 0
21 -24 268 0
25 -26 269 0
-25 -26 -269 0
25 26 -269 0
-25 26 269 0
27 28 270 0
-27 28 -270 0
27 -28 -270 0
-27 -28 270 0
-29 30 271 0
29 30 -271 0
-29 -30 -271 0
29 -30 271 0
-31 34 272 0
31 34 -272 0
-31 -34 -272 0
31 -34 272 0
37 -40 273 0
-37 -40 -273 0
37 40 -273 0
-37 40 273 0
-41 42 274 0
41 42 -274 0
-41 -42 -274 0
41 -42 274 0
-47 -49 275 0
47 -49 -275 0
-47 49 -275 0
47 49 275 0
261 -262 276 0
-261 -262 -276 0
261 262 -276 0
-261 262 276 0
263 -264 277 0
-263 -264 -277 0
263 264 -277 0
-263 264 277 0
265 -266 278 0
-265 -266 -278 0
265 266 -278 0
-265 266 278 0
267 -268 279 0
-267 -268 -279 0
267 268 -279 0
-267 268 279 0
269 -270 280 0
-269 -270 -280 0
269 270 -280 0
-269 270 280 0
271 -272 281 0
-271 -272 -281 0
271 272 -281 0
-271 272 281 0
273 -274 282 0
-273 -274 -282 0
273 274 -282 0
-273 274 282 0
275 -276 283 0
-275 -276 -283 0
275 276 -283 0
-275 276 283 0
277 -278 284 0
-277 -278 -284 0
277 278 -284 0
-277 278 284 0
279 -280 285 0
-279 -280 -285 0
279 280 -285 0
-279 280 285 0
281 -282 286 0
-281 -282 -286 0
281 282 -286 0
-281 282 286 0
283 -284 287 0
-283 -284 -287 0
283 284 -287 0
-283 284 287 0
285 -286 288 0
-285 -286 -288 0
285 286 -288 0
-285 286 288 0
287 288 0
-287 -288 0
-1 -4 289 0
1 -4 -289 0
-1 4 -289 0
1 4 289 0
5 -6 290 0
-5 -6 -290 0
5 6 -290 0
-5 6 290 0
7 10 291 0
-7 10 -291 0
7 -10 -291 0
-7 -10 291 0
12 14 292 0
-12 14 -292 0
12 -14 -292 0
-12 -14 292 0
-15 -16 293 0
15 -16 -293 0
-15 16 -293 0
15 16 293 0
-17 18 294 0
17 18 -294 0
-17 -18 -294 0
17 -18 294 0
19 -20 295 0
-19 -20 -295 0
19 20 -295 0
-19 20 295 0
-21 -24 296 0
21 -24 -296 0
-21 24 -296 0
21 24 296 0
27 -30 297 0
-27 -30 -297 0
27 30 -297 0
-27 30 297 0
31 -32 298 0
-31 -32 -298 0
31 32 -298 0
-31 32 298 0
-34 -36 299 0
34 -36 -299 0
-34 36 -299 0
34 36 299 0
38 -40 300 0
-38 -40 -300 0
38 40 -300 0
-38 40 300 0
-41 -42 301 0
41 -42 -301 0
-41 42 -301 0
41 42 301 0
-43 44 302 0
43 44 -302 0
-43 -44 -302 0
43 -44 302 0
47 48 303 0
-47 48 -303 0
47 -48 -303 0
-47 -48 303 0
289 -290 304 0
-289 -290 -304 0
289 290 -304 0
-289 290 304 0
291 -292 305 0
-291 -292 -305 0
291 292 -305 0
-291 292 305 0
293 -294 306 0
-293 -294 -306 0
293 294 -306 0
-293 294 306 0
295 -296 307 0
-295 -296 -307 0
295 296 -307 0
-295 296 307 0
297 -298 308 0
-297 -298 -308 0
297 298 -308 0
-297 298 308 0
299 -300 309 0
-299 -300 -309 0
299 300 -309 0
-299 300 309 0
301 -302 310 0
-301 -302 -310 0
301 302 -310 0
-301 302 310 0
303 -304 311 0
-303 -304 -311 0
303 304 -311 0
-303 304 311 0
305 -306 312 0
-305 -306 -312 0
305 306 -312 0
-305 306 312 0
307 -308 313 0
-307 -308 -313 0
307 308 -313 0
-307 308 313 0
309 -310 314 0
-309 -310 -314 0
309 310 -314 0
-309 310 314 0
311 -312 315 0
-311 -312 -315 0
311 312 -315 0
-311 312 315 0
313 -314 316 0
-313 -314 -316 0
313 314 -316 0
-313 314 316 0
315 316 0
-315 -316 0
-1 -4 317 0
1 -4 -317 0
-1 4 -317 0
1 4 317 0
-5 6 318 0
5 6 -318 0
-5 -6 -318 0
5 -6 318 0
9 11 319 0
-9 11 -319 0
9 -11 -319 0
-9 -11 319 0
-12 -17 320 0
12 -17 -320 0
-12 17 -320 0
12 17 320 0
-18 -25 321 0
18 -25 -321 0
-18 25 -321 0
18 25 321 0
-30 32 322 0
30 32 -322 0
-30 -32 -322 0
30 -32 322 0
33 -34 323 0
-33 -34 -323 0
33 34 -323 0
-33 34 323 0
-35 -36 324 0
35 -36 -324 0
-35 36 -324 0
35 36 324 0
38 -39 325 0
-38 -39 -325 0
38 39 -325 0
-38 39 325 0
40 -42 326 0
-40 -42 -326 0
40 42 -326 0
-40 42 326 0
46 49 327 0
-46 49 -327 0
46 -49 -327 0
-46 -49 327 0
317 -318 328 0
-317 -318 -328 0
317 318 -328 0
-317 318 328 0
319 -320 329 0
-319 -320 -329 0
319 320 -329 0
-319 320 329 0
321 -322 330 0
-321 -322 -330 0
321 322 -330 0
-321 322 330 0
323 -324 331 0
-323 -324 -331 0
323 324 -331 0
-323 324 331 0
325 -326 332 0
-325 -326 -332 0
325 326 -332 0
-325 326 332 0
327 -328 333 0
-327 -328 -333 0
327 328 -333 0
-327 328 333 0
329 -330 334 0
-329 -330 -334 0
329 330 -334 0
-329 330 334 0
331 -332 335 0
-331 -332 -335 0
331 332 -335 0
-331 332 335 0
-333 -334 335 0
333 -334 -335 0
-333 334 -335 0
333 334 335 0
-1 -3 336 0
1 -3 -336 0
-1 3 -336 0
1 3 336 0
4 -7 337 0
-4 -7 -337 0
4 7 -337 0
-4 7 337 0
10 11 338 0
-10 11 -338 0
10 -11 -338 0
-10 -11 338 0
-12 13 339 0
12 13 -339 0
-12 -13 -339 0
12 -13 339 0
-14 15 340 0
14 15 -340 0
-14 -15 -340 0
14 -15 340 0
-16 17 341 0
16 17 -341 0
-16 -17 -341 0
16 -17 341 0
18 21 342 0
-18 21 -342 0
18 -21 -342 0
-18 -21 342 0
25 -27 343 0
-25 -27 -343 0
25 27 -343 0
-25 27 343 0
-31 -34 344 0
31 -34 -344 0
-31 34 -344 0
31 34 344 0
-37 -40 345 0
37 -40 -345 0
-37 40 -345 0
37 40 345 0
-41 43 346 0
41 43 -346 0
-41 -43 -346 0
41 -43 346 0
-45 48 347 0
45 48 -347 0
-45 -48 -347 0
45 -48 347 0
-49 -50 348 0
49 -50 -348 0
-49 50 -348 0
49 50 348 0
336 -337 349 0
-336 -337 -349 0
336 337 -349 0
-336 337 349 0
338 -339 350 0
-338 -339 -350 0
338 339 -350 0
-338 339 350 0
340 -341 351 0
-340 -341 -351 0
340 341 -351 0
-340 341 351 0
342 -343 352 0
-342 -343 -352 0
342 343 -352 0
-342 343 352 0
344 -345 353 0
-344 -345 -353 0
344 345 -353 0
-344 345 353 0
346 -347 354 0
-346 -347 -354 0
346 347 -354 0
-346 347 354 0
348 -349 355 0
-348 -349 -355 0
348 349 -355 0
-348 349 355 0
350 -351 356 0
-350 -351 -356 0
350 351 -356 0
-350 351 356 0
352 -353 357 0
-352 -353 -357 0
352 353 -357 0
-352 353 357 0
354 -355 358 0
-354 -355 -358 0
354 355 -358 0
-354 355 358 0
356 -357 359 0
-356 -357 -359 0
356 357 -359 0
-356 357 359 0
358 359 0
-358 -359 0
-2 -4 360 0
2 -4 -360 0
-2 4 -360 0
2 4 360 0
6 7 361 0
-6 7 -361 0
6 -7 -361 0
-6 -7 361 0
-8 10 362 0
8 10 -362 0
-8 -10 -362 0
8 -10 362 0
11 13 363 0
-11 13 -363 0
11 -13 -363 0
-11 -13 363 0
16 19 364 0
-16 19 -364 0
16 -19 -364 0
-16 -19 364 0
-22 -23 365 0
22 -23 -365 0
-22 23 -365 0
22 23 365 0
25 27 366 0
-25 27 -366 0
25 -27 -366 0
-25 -27 366 0
28 -30 367 0
-28 -30 -367 0
28 30 -367 0
-28 30 367 0
-31 -33 368 0
31 -33 -368 0
-31 33 -368 0
31 33 368 0
-34 38 369 0
34 38 -369 0
-34 -38 -369 0
34 -38 369 0
-39 -40 370 0
39 -40 -370 0
-39 40 -370 0
39 40 370 0
41 43 371 0
-41 43 -371 0
41 -43 -371 0
-41 -43 371 0
-46 47 372 0
46 47 -372 0
-46 -47 -372 0
46 -47 372 0
-49 50 373 0
49 50 -373 0
-49 -50 -373 0
49 -50 373 0
360 -361 374 0
-360 -361 -374 0
360 361 -374 0
-360 361 374 0
362 -363 375 0
-362 -363 -375 0
362 363 -375 0
-362 363 375 0
364 -365 376 0
-364 -365 -376 0
364 365 -376 0
-364 365 376 0
366 -367 377 0
-366 -367 -377 0
366 367 -377 0
-366 367 377 0
368 -369 378 0
-368 -369 -378 0
368 369 -378 0
-368 369 378 0
370 -371 379 0
-370 -371 -379 0
370 371 -379 0
-370 371 379 0
372 -373 380 0
-372 -373 -380 0
372 373 -380 0
-372 373 380 0
374 -375 381 0
-374 -375 -381 0
374 375 -381 0
-374 375 381 0
376 -377 382 0
-376 -377 -382 0
376 377 -382 0
-376 377 382 0
378 -379 383 0
-378 -379 -383 0
378 379 -383 0
-378 379 383 0
380 -381 384 0
-380 -381 -384 0
380 381 -384 0
-380 381 384 0
382 -383 385 0
-382 -383 -385 0
382 383 -385 0
-382 383 385 0
384 385 0
-384 -385 0
-1 -2 386 0
1 -2 -386 0
-1 2 -386 0
1 2 386 0
3 4 387 0
-3 4 -387 0
3 -4 -387 0
-3 -4 387 0
5 6 388 0
-5 6 -388 0
5 -6 -388 0
-5 -6 388 0
-11 12 389 0
11 12 -389 0
-11 -12 -389 0
11 -12 389 0
-14 -15 390 0
14 -15 -390 0
-14 15 -390 0
14 15 390 0
-16 19 391 0
16 19 -391 0
-16 -19 -391 0
16 -19 391 0
-20 -21 392 0
20 -21 -392 0
-20 21 -392 0
20 21 392 0
22 -23 393 0
-22 -23 -393 0
22 23 -393 0
-22 23 393 0
26 27 394 0
-26 27 -394 0
26 -27 -394 0
-26 -27 394 0
-29 32 395 0
29 32 -395 0
-29 -32 -395 0
29 -32 395 0
-33 34 396 0
33 34 -396 0
-33 -34 -396 0
33 -34 396 0
-36 37 397 0
36 37 -397 0
-36 -37 -397 0
36 -37 397 0
-40 42 398 0
40 42 -398 0
-40 -42 -398 0
40 -42 398 0
45 -48 399 0
-45 -48 -399 0
45 48 -399 0
-45 48 399 0
49 -50 400 0
-49 -50 -400 0
49 50 -400 0
-49 50 400 0
386 -387 401 0
-386 -387 -401 0
386 387 -401 0
-386 387 401 0
388 -389 402 0
-388 -389 -402 0
388 389 -402 0
-388 389 402 0
390 -391 403 0
-390 -391 -403 0
390 391 -403 0
-390 391 403 0
392 -393 404 0
-392 -393 -404 0
392 393 -404 0
-392 393 404 0
394 -395 405 0
-394 -395 -405 0
394 395 -405 0
-394 395 405 0
396 -397 406 0
-396 -397 -406 0
396 397 -406 0
-396 397 406 0
398 -399 407 0
-398 -399 -407 0
398 399 -407 0
-398 399 407 0
400 -401 408 0
-400 -401 -408 0
400 401 -408 0
-400 401 408 0
402 -403 409 0
-402 -403 -409 0
402 403 -409 0
-402 403 409 0
404 -405 410 0
-404 -405 -410 0
404 405 -410 0
-404 405 410 0
406 -407 411 0
-406 -407 -411 0
406 407 -411 0
-406 407 411 0
408 -409 412 0
-408 -409 -412 0
408 409 -412 0
-408 409 412 0
410 -411 413 0
-410 -411 -413 0
410 411 -413 0
-410 411 413 0
412 413 0
-412 -413 0
-1 4 414 0
1 4 -414 0
-1 -4 -414 0
1 -4 414 0
7 9 415 0
-7 9 -415 0
7 -9 -415 0
-7 -9 415 0
-15 -18 416 0
15 -18 -416 0
-15 18 -416 0
15 18 416 0
-21 -22 417 0
21 -22 -417 0
-21 22 -417 0
21 22 417 0
24 -25 418 0
-24 -25 -418 0
24 25 -418 0
-24 25 418 0
-26 28 419 0
26 28 -419 0
-26 -28 -419 0
26 -28 419 0
-30 31 420 0
30 31 -420 0
-30 -31 -420 0
30 -31 420 0
-35 36 421 0
35 36 -421 0
-35 -36 -421 0
35 -36 421 0
-41 42 422 0
41 42 -422 0
-41 -42 -422 0
41 -42 422 0
-44 47 423 0
44 47 -423 0
-44 -47 -423 0
44 -47 423 0
48 49 424 0
-48 49 -424 0
48 -49 -424 0
-48 -49 424 0
413 -414 425 0
-413 -414 -425 0
413 414 -425 0
-413 414 425 0
415 -416 426 0
-415 -416 -426 0
415 416 -426 0
-415 416 426 0
417 -418 427 0
-417 -418 -427 0
417 418 -427 0
-417 418 427 0
419 -420 428 0
-419 -420 -428 0
419 420 -428 0
-419 420 428 0
421 -422 429 0
-421 -422 -429 0
421 422 -429 0
-421 422 429 0
423 -424 430 0
-423 -424 -430 0
423 424 -430 0
-423 424 430 0
425 -426 431 0
-425 -426 -431 0
425 426 -431 0
-425 426 431 0
427 -428 432 0
-427 -428 -432 0
427 428 -432 0
-427 428 432 0
429 -430 433 0
-429 -430 -433 0
429 430 -433 0
-429 430 433 0
-431 -432 433 0
431 -432 -433 0
-431 432 -433 0
431 432 433 0
2 -3 434 0
-2 -3 -434 0
2 3 -434 0
-2 3 434 0
5 6 435 0
-5 6 -435 0
5 -6 -435 0
-5 -6 435 0
9 10 436 0
-9 10 -436 0
9 -10 -436 0
-9 -10 436 0
-14 -16 437 0
14 -16 -437 0
-14 16 -437 0
14 16 437 0
-19 -20 438 0
19 -20 -438 0
-19 20 -438 0
19 20 438 0
-26 -27 439 0
26 -27 -439 0
-26 27 -439 0
26 27 439 0
-29 -32 440 0
29 -32 -440 0
-29 32 -440 0
29 32 440 0
33 36 441 0
-33 36 -441 0
33 -36 -441 0
-33 -36 441 0
-37 38 442 0
37 38 -442 0
-37 -38 -442 0
37 -38 442 0
40 41 443 0
-40 41 -443 0
40 -41 -443 0
-40 -41 443 0
-42 -44 444 0
42 -44 -444 0
-42 44 -444 0
42 44 444 0
-46 49 445 0
46 49 -445 0
-46 -49 -445 0
46 -49 445 0
433 -434 446 0
-433 -434 -446 0
433 434 -446 0
-433 434 446 0
435 -436 447 0
-435 -436 -447 0
435 436 -447 0
-435 436 447 0
437 -438 448 0
-437 -438 -448 0
437 438 -448 0
-437 438 448 0
439 -440 449 0
-439 -440 -449 0
439 440 -449 0
-439 440 449 0
441 -442 450 0
-441 -442 -450 0
441 442 -450 0
-441 442 450 0
443 -444 451 0
-443 -444 -451 0
443 444 -451 0
-443 444 451 0
445 -446 452 0
-445 -446 -452 0
445 446 -452 0
-445 446 452 0
447 -448 453 0
-447 -448 -453 0
447 448 -453 0
-447 448 453 0
449 -450 454 0
-449 -450 -454 0
449 450 -454 0
-449 450 454 0
451 -452 455 0
-451 -452 -455 0
451 452 -455 0
-451 452 455 0
453 -454 456 0
-453 -454 -456 0
453 454 -456 0
-453 454 456 0
455 456 0
-455 -456 0
1 -2 457 0
-1 -2 -457 0
1 2 -457 0
-1 2 457 0
-3 -4 458 0
3 -4 -458 0
-3 4 -458 0
3 4 458 0
-5 -9 459 0
5 -9 -459 0
-5 9 -459 0
5 9 459 0
-10 11 460 0
10 11 -460 0
-10 -11 -460 0
10 -11 460 0
-13 15 461 0
13 15 -461 0
-13 -15 -461 0
13 -15 461 0
16 17 462 0
-16 17 -462 0
16 -17 -462 0
-16 -17 462 0
20 22 463 0
-20 22 -463 0
20 -22 -463 0
-20 -22 463 0
-26 -28 464 0
26 -28 -464 0
-26 28 -464 0
26 28 464 0
-29 -31 465 0
29 -31 -465 0
-29 31 -465 0
29 31 465 0
32 -34 466 0
-32 -34 -466 0
32 34 -466 0
-32 34 466 0
-35 -39 467 0
35 -39 -467 0
-35 39 -467 0
35 39 467 0
41 -44 468 0
-41 -44 -468 0
41 44 -468 0
-41 44 468 0
-45 47 469 0
45 47 -469 0
-45 -47 -469 0
45 -47 469 0
-48 49 470 0
48 49 -470 0
-48 -49 -470 0
48 -49 470 0
456 -457 471 0
-456 -457 -471 0
456 457 -471 0
-456 457 471 0
458 -459 472 0
-458 -459 -472 0
458 459 -472 0
-458 459 472 0
460 -461 473 0
-460 -461 -473 0
460 461 -473 0
-460 461 473 0
462 -463 474 0
-462 -463 -474 0
462 463 -474 0
-462 463 474 0
464 -465 475 0
-464 -465 -475 0
464 465 -475 0
-464 465 475 0
466 -467 476 0
-466 -467 -476 0
466 467 -476 0
-466 467 476 0
468 -469 477 0
-468 -469 -477 0
468 469 -477 0
-468 469 477 0
470 -471 478 0
-470 -471 -478 0
470 471 -478 0
-470 471 478 0
472 -473 479 0
-472 -473 -479 0
472 473 -479 0
-472 473 479 0
474 -475 480 0
-474 -475 -480 0
474 475 -480 0
-474 475 480 0
476 -477 481 0
-476 -477 -481 0
476 477 -481 0
-476 477 481 0
478 -479 482 0
-478 -479 -482 0
478 479 -482 0
-478 479 482 0
480 -481 483 0
-480 -481 -483 0
480 481 -483 0
-480 481 483 0
482 483 0
-482 -483 0
2 3 484 0
-2 3 -484 0
2 -3 -484 0
-2 -3 484 0
6 -7 485 0
-6 -7 -485 0
6 7 -485 0
-6 7 485 0
-8 -9 486 0
8 -9 -486 0
-8 9 -486 0
8 9 486 0
10 -11 487 0
-10 -11 -487 0
10 11 -487 0
-10 11 487 0
-14 -15 488 0
14 -15 -488 0
-14 15 -488 0
14 15 488 0
18 19 489 0
-18 19 -489 0
18 -19 -489 0
-18 -19 489 0
20 -22 490 0
-20 -22 -490 0
20 22 -490 0
-20 22 490 0
-23 26 491 0
23 26 -491 0
-23 -26 -491 0
23 -26 491 0
27 -28 492 0
-27 -28 -492 0
27 28 -492 0
-27 28 492 0
-29 -31 493 0
29 -31 -493 0
-29 31 -493 0
29 31 493 0
-32 -33 494 0
32 -33 -494 0
-32 33 -494 0
32 33 494 0
34 35 495 0
-34 35 -495 0
34 -35 -495 0
-34 -35 495 0
37 -39 496 0
-37 -39 -496 0
37 39 -496 0
-37 39 496 0
-40 42 497 0
40 42 -497 0
-40 -42 -497 0
40 -42 497 0
483 -484 498 0
-483 -484 -498 0
483 484 -498 0
-483 484 498 0
485 -486 499 0
-485 -486 -499 0
485 486 -499 0
-485 486 499 0
487 -488 500 0
-487 -488 -500 0
487 488 -500 0
-487 488 500 0
489 -490 501 0
-489 -490 -501 0
489 490 -501 0
-489 490 501 0
491 -492 502 0
-491 -492 -502 0
491 492 -502 0
-491 492 502 0
493 -494 503 0
-493 -494 -503 0
493 494 -503 0
-493 494 503 0
495 -496 504 0
-495 -496 -504 0
495 496 -504 0
-495 496 504 0
497 -498 505 0
-497 -498 -505 0
497 498 -505 0
-497 498 505 0
499 -500 506 0
-499 -500 -506 0
499 500 -506 0
-499 500 506 0
501 -502 507 0
-501 -502 -507 0
501 502 -507 0
-501 502 507 0
503 -504 508 0
-503 -504 -508 0
503 504 -508 0
-503 504 508 0
505 -506 509 0
-505 -506 -509 0
505 506 -509 0
-505 506 509 0
507 -508 510 0
-507 -508 -510 0
507 508 -510 0
-507 508 510 0
509 510 0
-509 -510 0
1 6 511 0
-1 6 -511 0
1 -6 -511 0
-1 -6 511 0
8 10 512 0
-8 10 -512 0
8 -10 -512 0
-8 -10 512 0
11 12 513 0
-11 12 -513 0
11 -12 -513 0
-11 -12 513 0
17 -20 514 0
-17 -20 -514 0
17 20 -514 0
-17 20 514 0
-24 25 515 0
24 25 -515 0
-24 -25 -515 0
24 -25 515 0
-29 31 516 0
29 31 -516 0
-29 -31 -516 0
29 -31 516 0
32 33 517 0
-32 33 -517 0
32 -33 -517 0
-32 -33 517 0
-34 35 518 0
34 35 -518 0
-34 -35 -518 0
34 -35 518 0
-37 38 519 0
37 38 -519 0
-37 -38 -519 0
37 -38 519 0
-39 -40 520 0
39 -40 -520 0
-39 40 -520 0
39 40 520 0
41 -42 521 0
-41 -42 -521 0
41 42 -521 0
-41 42 521 0
43 44 522 0
-43 44 -522 0
43 -44 -522 0
-43 -44 522 0
-46 47 523 0
46 47 -523 0
-46 -47 -523 0
46 -47 523 0
510 -511 524 0
-510 -511 -524 0
510 511 -524 0
-510 511 524 0
512 -513 525 0
-512 -513 -525 0
512 513 -525 0
-512 513 525 0
514 -515 526 0
-514 -515 -526 0
514 515 -526 0
-514 515 526 0
516 -517 527 0
-516 -517 -527 0
516 517 -527 0
-516 517 527 0
518 -519 528 0
-518 -519 -528 0
518 519 -528 0
-518 519 528 0
520 -521 529 0
-520 -521 -529 0
520 521 -529 0
-520 521 529 0
522 -523 530 0
-522 -523 -530 0
522 523 -530 0
-522 523 530 0
524 -525 531 0
-524 -525 -531 0
524 525 -531 0
-524 525 531 0
526 -527 532 0
-526 -527 -532 0
526 527 -532 0
-526 527 532 0
528 -529 533 0
-528 -529 -533 0
528 529 -533 0
-528 529 533 0
530 -531 534 0
-530 -531 -534 0
530 531 -534 0
-530 531 534 0
532 -533 535 0
-532 -533 -535 0
532 533 -535 0
-532 533 535 0
534 535 0
-534 -535 0
-12 536 0
-24 536 0
-12 -24 537 0
-23 536 0
-12 -23 537 0
-24 -23 537 0
-12 -24 -23 538 0
-22 539 0
-21 539 0
-22 -21 540 0
-20 539 0
-22 -20 540 0
-21 -20 540 0
-22 -21 -20 541 0
-536 542 0
-537 543 0
-538 544 0
-539 542 0
-540 543 0
-541 544 0
-536 -539 543 0
-536 -540 544 0
-536 -541 545 0
-537 -539 544 0
-537 -540 545 0
-537 -541 546 0
-538 -539 545 0
-538 -540 546 0
-538 -541 547 0
-19 548 0
-18 548 0
-19 -18 549 0
-17 548 0
-19 -17 549 0
-18 -17 549 0
-19 -18 -17 550 0
-16 551 0
-15 551 0
-16 -15 552 0
-14 551 0
-16 -14 552 0
-15 -14 552 0
-16 -15 -14 553 0
-548 554 0
-549 555 0
-550 556 0
-551 554 0
-552 555 0
-553 556 0
-548 -551 555 0
-548 -552 556 0
-548 -553 557 0
-549 -551 556 0
-549 -552 557 0
-549 -553 558 0
-550 -551 557 0
-550 -552 558 0
-550 -553 559 0
-542 560 0
-544 561 0
-546 562 0
-554 560 0
-556 561 0
-558 562 0
-542 -554 561 0
-542 -556 562 0
-542 -558 563 0
-544 -554 562 0
-544 -556 563 0
-544 -558 564 0
-546 -554 563 0
-546 -556 564 0
-546 -558 565 0
-543 566 0
-545 567 0
-547 568 0
-555 566 0
-557 567 0
-559 568 0
-543 -555 567 0
-543 -557 568 0
-543 -559 569 0
-545 -555 568 0
-545 -557 569 0
-545 -559 570 0
-547 -555 569 0
-547 -557 570 0
-547 -559 571 0
-561 572 0
-566 572 0
-561 -566 573 0
-562 574 0
-567 574 0
-562 -567 575 0
-563 576 0
-568 576 0
-563 -568 577 0
-564 578 0
-569 578 0
-564 -569 579 0
-565 580 0
-570 580 0
-565 -570 581 0
-13 582 0
-25 582 0
-13 -25 583 0
-11 582 0
-13 -11 583 0
-25 -11 583 0
-13 -25 -11 584 0
-10 585 0
-9 585 0
-10 -9 586 0
-8 585 0
-10 -8 586 0
-9 -8 586 0
-10 -9 -8 587 0
-582 588 0
-583 589 0
-584 590 0
-585 588 0
-586 589 0
-587 590 0
-582 -585 589 0
-582 -586 590 0
-582 -587 591 0
-583 -585 590 0
-583 -586 591 0
-583 -587 592 0
-584 -585 591 0
-584 -586 592 0
-584 -587 593 0
-7 594 0
-6 594 0
-7 -6 595 0
-5 594 0
-7 -5 595 0
-6 -5 595 0
-7 -6 -5 596 0
-4 597 0
-3 597 0
-4 -3 598 0
-2 597 0
-4 -2 598 0
-3 -2 598 0
-4 -3 -2 599 0
-594 600 0
-595 601 0
-596 602 0
-597 600 0
-598 601 0
-599 602 0
-594 -597 601 0
-594 -598 602 0
-594 -599 603 0
-595 -597 602 0
-595 -598 603 0
-595 -599 604 0
-596 -597 603 0
-596 -598 604 0
-596 -599 605 0
-588 606 0
-590 607 0
-592 608 0
-600 606 0
-602 607 0
-604 608 0
-588 -600 607 0
-588 -602 608 0
-588 -604 609 0
-590 -600 608 0
-590 -602 609 0
-590 -604 610 0
-592 -600 609 0
-592 -602 610 0
-592 -604 611 0
-589 612 0
-591 613 0
-593 614 0
-601 612 0
-603 613 0
-605 614 0
-589 -601 613 0
-589 -603 614 0
-589 -605 615 0
-591 -601 614 0
-591 -603 615 0
-591 -605 616 0
-593 -601 615 0
-593 -603 616 0
-593 -605 617 0
-607 618 0
-612 618 0
-607 -612 619 0
-608 620 0
-613 620 0
-608 -613 621 0
-609 622 0
-614 622 0
-609 -614 623 0
-610 624 0
-615 624 0
-610 -615 625 0
-611 626 0
-616 626 0
-611 -616 627 0
-1 628 0
-37 628 0
-1 -37 629 0
-49 628 0
-1 -49 629 0
-37 -49 629 0
-1 -37 -49 630 0
-48 631 0
-47 631 0
-48 -47 632 0
-46 631 0
-48 -46 632 0
-47 -46 632 0
-48 -47 -46 633 0
-628 634 0
-629 635 0
-630 636 0
-631 634 0
-632 635 0
-633 636 0
-628 -631 635 0
-628 -632 636 0
-628 -633 637 0
-629 -631 636 0
-629 -632 637 0
-629 -633 638 0
-630 -631 637 0
-630 -632 638 0
-630 -633 639 0
-45 640 0
-44 640 0
-45 -44 641 0
-43 640 0
-45 -43 641 0
-44 -43 641 0
-45 -44 -43 642 0
-42 643 0
-41 643 0
-42 -41 644 0
-40 643 0
-42 -40 644 0
-41 -40 644 0
-42 -41 -40 645 0
-640 646 0
-641 647 0
-642 648 0
-643 646 0
-644 647 0
-645 648 0
-640 -643 647 0
-640 -644 648 0
-640 -645 649 0
-641 -643 648 0
-641 -644 649 0
-641 -645 650 0
-642 -643 649 0
-642 -644 650 0
-642 -645 651 0
-634 652 0
-636 653 0
-638 654 0
-646 652 0
-648 653 0
-650 654 0
-634 -646 653 0
-634 -648 654 0
-634 -650 655 0
-636 -646 654 0
-636 -648 655 0
-636 -650 656 0
-638 -646 655 0
-638 -648 656 0
-638 -650 657 0
-635 658 0
-637 659 0
-639 660 0
-647 658 0
-649 659 0
-651 660 0
-635 -647 659 0
-635 -649 660 0
-635 -651 661 0
-637 -647 660 0
-637 -649 661 0
-637 -651 662 0
-639 -647 661 0
-639 -649 662 0
-639 -651 663 0
-653 664 0
-658 664 0
-653 -658 665 0
-654 666 0
-659 666 0
-654 -659 667 0
-655 668 0
-660 668 0
-655 -660 669 0
-656 670 0
-661 670 0
-656 -661 671 0
-657 672 0
-662 672 0
-657 -662 673 0
-39 674 0
-38 674 0
-39 -38 675 0
-50 674 0
-39 -50 675 0
-38 -50 675 0
-39 -38 -50 676 0
-36 677 0
-35 677 0
-36 -35 678 0
-34 677 0
-36 -34 678 0
-35 -34 678 0
-36 -35 -34 679 0
-674 680 0
-675 681 0
-676 682 0
-677 680 0
-678 681 0
-679 682 0
-674 -677 681 0
-674 -678 682 0
-674 -679 683 0
-675 -677 682 0
-675 -678 683 0
-675 -679 684 0
-676 -677 683 0
-676 -678 684 0
-676 -679 685 0
-33 686 0
-32 686 0
-33 -32 687 0
-31 686 0
-33 -31 687 0
-32 -31 687 0
-33 -32 -31 688 0
-30 689 0
-29 689 0
-30 -29 690 0
-28 691 0
-27 691 0
-28 -27 692 0
-26 691 0
-28 -26 692 0
-27 -26 692 0
-28 -27 -26 693 0
-689 694 0
-690 695 0
-691 694 0
-692 695 0
-693 696 0
-689 -691 695 0
-689 -692 696 0
-689 -693 697 0
-690 -691 696 0
-690 -692 697 0
-690 -693 698 0
-686 699 0
-687 700 0
-688 701 0
-694 699 0
-695 700 0
-696 701 0
-697 702 0
-698 703 0
-686 -694 700 0
-686 -695 701 0
-686 -696 702 0
-686 -697 703 0
-686 -698 704 0
-687 -694 701 0
-687 -695 702 0
-687 -696 703 0
-687 -697 704 0
-687 -698 705 0
-688 -694 702 0
-688 -695 703 0
-688 -696 704 0
-688 -697 705 0
-688 -698 706 0
-680 707 0
-682 708 0
-684 709 0
-699 707 0
-701 708 0
-703 709 0
-705 710 0
-680 -699 708 0
-680 -701 709 0
-680 -703 710 0
-680 -705 711 0
-682 -699 709 0
-682 -701 710 0
-682 -703 711 0
-682 -705 712 0
-684 -699 710 0
-684 -701 711 0
-684 -703 712 0
-684 -705 713 0
-681 714 0
-683 715 0
-685 716 0
-700 714 0
-702 715 0
-704 716 0
-706 717 0
-681 -700 715 0
-681 -702 716 0
-681 -704 717 0
-681 -706 718 0
-683 -700 716 0
-683 -702 717 0
-683 -704 718 0
-683 -706 719 0
-685 -700 717 0
-685 -702 718 0
-685 -704 719 0
-685 -706 720 0
-708 721 0
-714 721 0
-708 -714 722 0
-709 723 0
-715 723 0
-709 -715 724 0
-710 725 0
-716 725 0
-710 -716 726 0
-711 727 0
-717 727 0
-711 -717 728 0
-712 729 0
-718 729 0
-712 -718 730 0
-713 731 0
-719 731 0
-713 -719 732 0
-652 733 0
-667 734 0
-671 735 0
-707 733 0
-724 734 0
-728 735 0
-732 736 0
-652 -707 734 0
-652 -724 735 0
-652 -728 736 0
-652 -732 737 0
-667 -707 735 0
-667 -724 736 0
-667 -728 737 0
-671 -707 736 0
-671 -724 737 0
-665 738 0
-669 739 0
-673 740 0
-722 738 0
-726 739 0
-730 740 0
-665 -722 739 0
-665 -726 740 0
-665 -730 741 0
-669 -722 740 0
-669 -726 741 0
-673 -722 741 0
-734 742 0
-738 742 0
-734 -738 743 0
-735 744 0
-739 744 0
-735 -739 745 0
-736 746 0
-740 746 0
-736 -740 747 0
-737 748 0
-741 748 0
-737 -741 749 0
-664 750 0
-668 751 0
-672 752 0
-721 750 0
-725 751 0
-729 752 0
-720 753 0
-664 -721 751 0
-664 -725 752 0
-664 -729 753 0
-664 -720 754 0
-668 -721 752 0
-668 -725 753 0
-668 -729 754 0
-672 -721 753 0
-672 -725 754 0
-666 755 0
-670 756 0
-663 757 0
-723 755 0
-727 756 0
-731 757 0
-666 -723 756 0
-666 -727 757 0
-666 -731 758 0
-670 -723 757 0
-670 -727 758 0
-663 -723 758 0
-751 759 0
-755 759 0
-751 -755 760 0
-752 761 0
-756 761 0
-752 -756 762 0
-753 763 0
-757 763 0
-753 -757 764 0
-754 765 0
-758 765 0
-742 766 0
-750 766 0
-742 -750 767 0
-743 768 0
-759 768 0
-743 -759 769 0
-744 770 0
-760 770 0
-744 -760 771 0
-745 772 0
-761 772 0
-745 -761 773 0
-746 774 0
-762 774 0
-746 -762 775 0
-747 776 0
-763 776 0
-747 -763 777 0
-748 778 0
-764 778 0
-748 -764 779 0
-749 780 0
-765 780 0
-606 781 0
-621 782 0
-625 783 0
-733 781 0
-769 782 0
-773 783 0
-777 784 0
-606 -733 782 0
-606 -769 783 0
-606 -773 784 0
-606 -777 785 0
-621 -733 783 0
-621 -769 784 0
-621 -773 785 0
-625 -733 784 0
-625 -769 785 0
-619 786 0
-623 787 0
-627 788 0
-767 786 0
-771 787 0
-775 788 0
-779 789 0
-619 -767 787 0
-619 -771 788 0
-619 -775 789 0
-623 -767 788 0
-623 -771 789 0
-627 -767 789 0
-782 790 0
-786 790 0
-782 -786 791 0
-783 792 0
-787 792 0
-783 -787 793 0
-784 794 0
-788 794 0
-784 -788 795 0
-785 796 0
-789 796 0
-785 -789 797 0
-618 798 0
-622 799 0
-626 800 0
-766 798 0
-770 799 0
-774 800 0
-778 801 0
-618 -766 799 0
-618 -770 800 0
-618 -774 801 0
-618 -778 802 0
-622 -766 800 0
-622 -770 801 0
-622 -774 802 0
-626 -766 801 0
-626 -770 802 0
-620 803 0
-624 804 0
-617 805 0
-768 803 0
-772 804 0
-776 805 0
-780 806 0
-620 -768 804 0
-620 -772 805 0
-620 -776 806 0
-624 -768 805 0
-624 -772 806 0
-617 -768 806 0
-799 807 0
-803 807 0
-799 -803 808 0
-800 809 0
-804 809 0
-800 -804 810 0
-801 811 0
-805 811 0
-801 -805 812 0
-802 813 0
-806 813 0
-790 814 0
-798 814 0
-790 -798 815 0
-791 816 0
-807 816 0
-791 -807 817 0
-792 818 0
-808 818 0
-792 -808 819 0
-793 820 0
-809 820 0
-793 -809 821 0
-794 822 0
-810 822 0
-794 -810 823 0
-795 824 0
-811 824 0
-795 -811 825 0
-796 826 0
-812 826 0
-796 -812 827 0
-797 828 0
-813 828 0
-560 829 0
-575 830 0
-579 831 0
-781 829 0
-817 830 0
-821 831 0
-825 832 0
-560 -781 830 0
-560 -817 831 0
-560 -821 832 0
-560 -825 833 0
-575 -781 831 0
-575 -817 832 0
-575 -821 833 0
-579 -781 832 0
-579 -817 833 0
-573 834 0
-577 835 0
-581 836 0
-815 834 0
-819 835 0
-823 836 0
-827 837 0
-573 -815 835 0
-573 -819 836 0
-573 -823 837 0
-577 -815 836 0
-577 -819 837 0
-581 -815 837 0
-830 838 0
-834 838 0
-830 -834 839 0
-831 840 0
-835 840 0
-831 -835 841 0
-832 842 0
-836 842 0
-832 -836 843 0
-833 844 0
-837 844 0
-833 -837 845 0
-572 846 0
-576 847 0
-580 848 0
-814 846 0
-818 847 0
-822 848 0
-826 849 0
-572 -814 847 0
-572 -818 848 0
-572 -822 849 0
-572 -826 850 0
-576 -814 848 0
-576 -818 849 0
-576 -822 850 0
-580 -814 849 0
-580 -818 850 0
-574 851 0
-578 852 0
-571 853 0
-816 851 0
-820 852 0
-824 853 0
-828 854 0
-574 -816 852 0
-574 -820 853 0
-574 -824 854 0
-578 -816 853 0
-578 -820 854 0
-571 -816 854 0
-847 855 0
-851 855 0
-847 -851 856 0
-848 857 0
-852 857 0
-848 -852 858 0
-849 859 0
-853 859 0
-849 -853 860 0
-850 861 0
-854 861 0
-838 862 0
-846 862 0
-838 -846 863 0
-839 864 0
-855 864 0
-839 -855 865 0
-840 866 0
-856 866 0
-840 -856 867 0
-841 868 0
-857 868 0
-841 -857 869 0
-842 870 0
-858 870 0
-842 -858 871 0
-843 872 0
-859 872 0
-843 -859 873 0
-844 874 0
-860 874 0
-844 -860 875 0
-845 876 0
-861 876 0
-876 0
